43
1000
200	3
199	3
198	4
197	3
196	1
195	1
194	4
193	3
189	1
188	2
187	2
185	3
184	1
183	3
182	1
181	2
180	4
179	2
178	1
177	1
176	1
175	1
173	1
171	1
169	7
168	1
167	1
166	1
165	5
164	1
163	3
162	6
161	6
160	1
159	4
158	4
157	2
156	1
155	2
154	2
153	2
152	1
150	1
